NAME          DCAP_3_3_2_300_SS188
ROWS
 N  OBJ
 L  CON1
 L  CON2
 L  CON3
 L  CON4
 L  CON5
 L  CON6
 L  CON7
 L  CON8
 L  CON9
 L  CON10
 L  CON11
 L  CON12
 E  CON13
 E  CON14
 E  CON15
 E  CON16
 E  CON17
 E  CON18
COLUMNS
    x[1,1]    OBJ       6.180167      CON1      1.000000    
    x[1,1]    CON7      -1.000000     CON8      -1.000000   
    x[1,2]    OBJ       5.039546      CON2      1.000000    
    x[1,2]    CON8      -1.000000   
    x[2,1]    OBJ       6.732585      CON3      1.000000    
    x[2,1]    CON9      -1.000000     CON10     -1.000000   
    x[2,2]    OBJ       7.443064      CON4      1.000000    
    x[2,2]    CON10     -1.000000   
    x[3,1]    OBJ       6.563535      CON5      1.000000    
    x[3,1]    CON11     -1.000000     CON12     -1.000000   
    x[3,2]    OBJ       6.054841      CON6      1.000000    
    x[3,2]    CON12     -1.000000   
    MARKER    'MARKER'                'INTORG'
    u[1,1]    OBJ       48.076654     CON1      -1.000000   
    u[1,2]    OBJ       49.466655     CON2      -1.000000   
    u[2,1]    OBJ       49.996186     CON3      -1.000000   
    u[2,2]    OBJ       32.230043     CON4      -1.000000   
    u[3,1]    OBJ       20.066487     CON5      -1.000000   
    u[3,2]    OBJ       27.484319     CON6      -1.000000   
    y[1,1,1]  OBJ       8.907625      CON7      0.637030    
    y[1,1,1]  CON13     1.000000    
    y[1,1,2]  OBJ       9.802038      CON8      0.564346    
    y[1,1,2]  CON14     1.000000    
    y[1,2,1]  OBJ       8.151022      CON7      0.989277    
    y[1,2,1]  CON15     1.000000    
    y[1,2,2]  OBJ       6.705252      CON8      1.334430    
    y[1,2,2]  CON16     1.000000    
    y[1,3,1]  OBJ       8.112115      CON7      0.894860    
    y[1,3,1]  CON17     1.000000    
    y[1,3,2]  OBJ       7.674895      CON8      0.788128    
    y[1,3,2]  CON18     1.000000    
    y[2,1,1]  OBJ       5.177506      CON9      0.637030    
    y[2,1,1]  CON13     1.000000    
    y[2,1,2]  OBJ       5.943103      CON10     0.564346    
    y[2,1,2]  CON14     1.000000    
    y[2,2,1]  OBJ       9.679196      CON9      0.989277    
    y[2,2,1]  CON15     1.000000    
    y[2,2,2]  OBJ       6.589854      CON10     1.334430    
    y[2,2,2]  CON16     1.000000    
    y[2,3,1]  OBJ       8.607542      CON9      0.894860    
    y[2,3,1]  CON17     1.000000    
    y[2,3,2]  OBJ       5.491565      CON10     0.788128    
    y[2,3,2]  CON18     1.000000    
    y[3,1,1]  OBJ       6.958456      CON11     0.637030    
    y[3,1,1]  CON13     1.000000    
    y[3,1,2]  OBJ       8.246080      CON12     0.564346    
    y[3,1,2]  CON14     1.000000    
    y[3,2,1]  OBJ       7.418008      CON11     0.989277    
    y[3,2,1]  CON15     1.000000    
    y[3,2,2]  OBJ       6.829453      CON12     1.334430    
    y[3,2,2]  CON16     1.000000    
    y[3,3,1]  OBJ       5.809022      CON11     0.894860    
    y[3,3,1]  CON17     1.000000    
    y[3,3,2]  OBJ       5.117112      CON12     0.788128    
    y[3,3,2]  CON18     1.000000    
    z[1,1]    OBJ       867.189310    CON13     1.000000    
    z[1,2]    OBJ       632.125772    CON14     1.000000    
    z[2,1]    OBJ       947.070707    CON15     1.000000    
    z[2,2]    OBJ       618.293536    CON16     1.000000    
    z[3,1]    OBJ       721.597717    CON17     1.000000    
    z[3,2]    OBJ       858.018645    CON18     1.000000    
    MARKER    'MARKER'                 'INTEND'
RHS
    RHS       CON1      -0.000000     CON2      -0.000000   
    RHS       CON3      -0.000000     CON4      -0.000000   
    RHS       CON5      -0.000000     CON6      -0.000000   
    RHS       CON7      -0.000000     CON8      -0.000000   
    RHS       CON9      -0.000000     CON10     -0.000000   
    RHS       CON11     -0.000000     CON12     -0.000000   
    RHS       CON13     1.000000      CON14     1.000000    
    RHS       CON15     1.000000      CON16     1.000000    
    RHS       CON17     1.000000      CON18     1.000000    
BOUNDS
 BV BOUND     u[1,1]  
 BV BOUND     u[1,2]  
 BV BOUND     u[2,1]  
 BV BOUND     u[2,2]  
 BV BOUND     u[3,1]  
 BV BOUND     u[3,2]  
 BV BOUND     y[1,1,1]
 BV BOUND     y[1,1,2]
 BV BOUND     y[1,2,1]
 BV BOUND     y[1,2,2]
 BV BOUND     y[1,3,1]
 BV BOUND     y[1,3,2]
 BV BOUND     y[2,1,1]
 BV BOUND     y[2,1,2]
 BV BOUND     y[2,2,1]
 BV BOUND     y[2,2,2]
 BV BOUND     y[2,3,1]
 BV BOUND     y[2,3,2]
 BV BOUND     y[3,1,1]
 BV BOUND     y[3,1,2]
 BV BOUND     y[3,2,1]
 BV BOUND     y[3,2,2]
 BV BOUND     y[3,3,1]
 BV BOUND     y[3,3,2]
 BV BOUND     z[1,1]  
 BV BOUND     z[1,2]  
 BV BOUND     z[2,1]  
 BV BOUND     z[2,2]  
 BV BOUND     z[3,1]  
 BV BOUND     z[3,2]  
ENDATA
